#######################################
### Exact MIP solver for the HHCRSP ###
#######################################
-- Instance file: new-instances/HHCRSP_200_40_48_1.6_R_C.txt
-- Max threads: 4
-- Time limit: 999999 seconds
-- Use initial solution: No
Trivial flow violations prevented generating 353582 variables.
Version identifier: 20.1.0.0 | 2020-11-10 | 9bedb6d68
CPXPARAM_Threads                                 4
CPXPARAM_TimeLimit                               999999
Parallel mode: deterministic, using up to 4 threads for concurrent optimization:
 * Starting dual Simplex on 1 thread...
 * Starting Barrier on 3 threads...
Tried aggregator 1 time.
LP Presolve eliminated 20022 rows and 4222 columns.
Reduced LP has 348648 rows, 331846 columns, and 5853851 nonzeros.
Presolve time = 12.31 sec. (1373.07 ticks)
Symmetry aggregator did 503080 additional substitutions.

Iteration log . . .
Iteration:     1   Dual objective     =             0.000000
Iteration:   923   Dual objective     =           191.000000

Dual crossover.
  Dual:  Fixing 673 variables.
      672 DMoves:  Infeasibility  4.96602759e-13  Objective  1.91333333e+02
        0 DMoves:  Infeasibility  2.89879232e-13  Objective  1.91333333e+02
  Dual:  Pushed 20, exchanged 653.
  Primal:  Fixing 449 variables.
      448 PMoves:  Infeasibility  4.16333634e-17  Objective  1.91333333e+02
        0 PMoves:  Infeasibility  6.93889390e-17  Objective  1.91333333e+02
  Primal:  Pushed 344, exchanged 105.

Dual simplex solved model.


Solution status from MIP model:
-- Processing time: 20.306 sec.
-- Memory used: 409.188 MB
-- Best bound: inf
-- Obj value: 191.333
-- Gap: inf%
-- Total distance: 574
-- Total tardiness: 0
-- Largest tardiness: 0
